[[64,65,68,198,200,296,344,346,480,532,709,711,730,926,941,958],[2,113,137,153,253,272,273,276,394,398,594,607,795,802,828,832],[1,47,73,75,82,229,250,366,371,375,579,586,764,786,991,994,999],[38,39,70,201,214,215,225,348,363,550,566,572,735,753,756,959,964],[29,55,174,192,317,324,338,342,376,459,466,473,691,704,851,857,920],[24,89,156,161,166,310,399,409,424,457,632,633,670,671,684,835,848]]